NAME profit_maximization
OBJSENSE MAX
ROWS
 N  OBJ
 G  Fraction_lower_bound_0
 L  Fraction_upper_bound_0
 E  Q0_upper_bound_0
 E  Ensure_only_one_R_true_0
 E  Define_Q_hat_0
 E  Adjust_Q_hat_0
 E  Constr_Total_Demand_Up_to_K_Minus_1_0
 E  Constr_Total_Demand_from_K_to_T_0
 E  Constr_Left_0_diff_aux_0
 E  Constr_Lost_0_diff_aux_0
 E  Constr_Q1_plus_left_0
 E  Constr_Left_1_diff_aux_0
 E  Constr_Lost_1_diff_aux_0
 E  Profit_Constraint_0
 G  Fraction_lower_bound_1
 L  Fraction_upper_bound_1
 E  Q0_upper_bound_1
 E  Ensure_only_one_R_true_1
 E  Define_Q_hat_1
 E  Adjust_Q_hat_1
 E  Constr_Total_Demand_Up_to_K_Minus_1_1
 E  Constr_Total_Demand_from_K_to_T_1
 E  Constr_Left_0_diff_aux_1
 E  Constr_Lost_0_diff_aux_1
 E  Constr_Q1_plus_left_1
 E  Constr_Left_1_diff_aux_1
 E  Constr_Lost_1_diff_aux_1
 E  Profit_Constraint_1
 G  Fraction_lower_bound_2
 L  Fraction_upper_bound_2
 E  Q0_upper_bound_2
 E  Ensure_only_one_R_true_2
 E  Define_Q_hat_2
 E  Adjust_Q_hat_2
 E  Constr_Total_Demand_Up_to_K_Minus_1_2
 E  Constr_Total_Demand_from_K_to_T_2
 E  Constr_Left_0_diff_aux_2
 E  Constr_Lost_0_diff_aux_2
 E  Constr_Q1_plus_left_2
 E  Constr_Left_1_diff_aux_2
 E  Constr_Lost_1_diff_aux_2
 E  Profit_Constraint_2
 G  Fraction_lower_bound_3
 L  Fraction_upper_bound_3
 E  Q0_upper_bound_3
 E  Ensure_only_one_R_true_3
 E  Define_Q_hat_3
 E  Adjust_Q_hat_3
 E  Constr_Total_Demand_Up_to_K_Minus_1_3
 E  Constr_Total_Demand_from_K_to_T_3
 E  Constr_Left_0_diff_aux_3
 E  Constr_Lost_0_diff_aux_3
 E  Constr_Q1_plus_left_3
 E  Constr_Left_1_diff_aux_3
 E  Constr_Lost_1_diff_aux_3
 E  Profit_Constraint_3
 G  Fraction_lower_bound_4
 L  Fraction_upper_bound_4
 E  Q0_upper_bound_4
 E  Ensure_only_one_R_true_4
 E  Define_Q_hat_4
 E  Adjust_Q_hat_4
 E  Constr_Total_Demand_Up_to_K_Minus_1_4
 E  Constr_Total_Demand_from_K_to_T_4
 E  Constr_Left_0_diff_aux_4
 E  Constr_Lost_0_diff_aux_4
 E  Constr_Q1_plus_left_4
 E  Constr_Left_1_diff_aux_4
 E  Constr_Lost_1_diff_aux_4
 E  Profit_Constraint_4
COLUMNS
    C0(2)     Constr_Left_0_diff_aux_0  1
    C0(2)     Profit_Constraint_0  -700
    C1(2)     Constr_Left_0_diff_aux_1  1
    C1(2)     Profit_Constraint_1  -700
    C2(2)     Constr_Left_0_diff_aux_2  1
    C2(2)     Profit_Constraint_2  -700
    C3(2)     Constr_Left_0_diff_aux_3  1
    C3(2)     Profit_Constraint_3  -700
    C4(2)     Constr_Left_0_diff_aux_4  1
    C4(2)     Profit_Constraint_4  -700
    C5(1)     Constr_Q1_plus_left_0  -1
    C6(1)     Constr_Q1_plus_left_1  -1
    C7(1)     Constr_Q1_plus_left_2  -1
    C8(1)     Constr_Q1_plus_left_3  -1
    C9(1)     Constr_Q1_plus_left_4  -1
    C10(1)    Profit_Constraint_0  700
    C11(1)    Profit_Constraint_1  700
    C12(1)    Profit_Constraint_2  700
    C13(1)    Profit_Constraint_3  700
    C14(1)    Profit_Constraint_4  700
    C15(2)    Constr_Left_1_diff_aux_0  1
    C15(2)    Profit_Constraint_0  -700
    C16(2)    Constr_Left_1_diff_aux_1  1
    C16(2)    Profit_Constraint_1  -700
    C17(2)    Constr_Left_1_diff_aux_2  1
    C17(2)    Profit_Constraint_2  -700
    C18(2)    Constr_Left_1_diff_aux_3  1
    C18(2)    Profit_Constraint_3  -700
    C19(2)    Constr_Left_1_diff_aux_4  1
    C19(2)    Profit_Constraint_4  -700
    C20(1)    Profit_Constraint_0  300
    C21(1)    Profit_Constraint_1  300
    C22(1)    Profit_Constraint_2  300
    C23(1)    Profit_Constraint_3  300
    C24(1)    Profit_Constraint_4  300
    C25(1)    Profit_Constraint_0  700
    C26(1)    Profit_Constraint_1  700
    C27(1)    Profit_Constraint_2  700
    C28(1)    Profit_Constraint_3  700
    C29(1)    Profit_Constraint_4  700
    C30(0)    OBJ       0
    C31(0)    OBJ       0
    C32(0)    OBJ       0
    C33(0)    OBJ       0
    C34(0)    OBJ       0
    C35(0)    OBJ       0
    C36(0)    OBJ       0
    C37(0)    OBJ       0
    C38(0)    OBJ       0
    C39(0)    OBJ       0
    C40(1)    OBJ       1
    C40(1)    Profit_Constraint_0  1
    C41(1)    OBJ       1
    C41(1)    Profit_Constraint_1  1
    C42(1)    OBJ       1
    C42(1)    Profit_Constraint_2  1
    C43(1)    OBJ       1
    C43(1)    Profit_Constraint_3  1
    C44(1)    OBJ       1
    C44(1)    Profit_Constraint_4  1
    C45(2)    Constr_Total_Demand_Up_to_K_Minus_1_0  1
    C45(2)    Constr_Lost_0_diff_aux_0  -1
    C46(2)    Constr_Total_Demand_Up_to_K_Minus_1_1  1
    C46(2)    Constr_Lost_0_diff_aux_1  -1
    C47(2)    Constr_Total_Demand_Up_to_K_Minus_1_2  1
    C47(2)    Constr_Lost_0_diff_aux_2  -1
    C48(2)    Constr_Total_Demand_Up_to_K_Minus_1_3  1
    C48(2)    Constr_Lost_0_diff_aux_3  -1
    C49(2)    Constr_Total_Demand_Up_to_K_Minus_1_4  1
    C49(2)    Constr_Lost_0_diff_aux_4  -1
    C50(2)    Constr_Total_Demand_from_K_to_T_0  1
    C50(2)    Constr_Lost_1_diff_aux_0  -1
    C51(2)    Constr_Total_Demand_from_K_to_T_1  1
    C51(2)    Constr_Lost_1_diff_aux_1  -1
    C52(2)    Constr_Total_Demand_from_K_to_T_2  1
    C52(2)    Constr_Lost_1_diff_aux_2  -1
    C53(2)    Constr_Total_Demand_from_K_to_T_3  1
    C53(2)    Constr_Lost_1_diff_aux_3  -1
    C54(2)    Constr_Total_Demand_from_K_to_T_4  1
    C54(2)    Constr_Lost_1_diff_aux_4  -1
    C55(3)    Constr_Q1_plus_left_0  1
    C55(3)    Constr_Left_1_diff_aux_0  -1
    C55(3)    Constr_Lost_1_diff_aux_0  1
    C56(3)    Constr_Q1_plus_left_1  1
    C56(3)    Constr_Left_1_diff_aux_1  -1
    C56(3)    Constr_Lost_1_diff_aux_1  1
    C57(3)    Constr_Q1_plus_left_2  1
    C57(3)    Constr_Left_1_diff_aux_2  -1
    C57(3)    Constr_Lost_1_diff_aux_2  1
    C58(3)    Constr_Q1_plus_left_3  1
    C58(3)    Constr_Left_1_diff_aux_3  -1
    C58(3)    Constr_Lost_1_diff_aux_3  1
    C59(3)    Constr_Q1_plus_left_4  1
    C59(3)    Constr_Left_1_diff_aux_4  -1
    C59(3)    Constr_Lost_1_diff_aux_4  1
    C60(3)    Fraction_lower_bound_0  1
    C60(3)    Fraction_upper_bound_0  1
    C60(3)    Q0_upper_bound_0  -2424.39646656199
    C61(3)    Fraction_lower_bound_1  1
    C61(3)    Fraction_upper_bound_1  1
    C61(3)    Q0_upper_bound_1  -2424.39646656199
    C62(3)    Fraction_lower_bound_2  1
    C62(3)    Fraction_upper_bound_2  1
    C62(3)    Q0_upper_bound_2  -2424.39646656199
    C63(3)    Fraction_lower_bound_3  1
    C63(3)    Fraction_upper_bound_3  1
    C63(3)    Q0_upper_bound_3  -2424.39646656199
    C64(3)    Fraction_lower_bound_4  1
    C64(3)    Fraction_upper_bound_4  1
    C64(3)    Q0_upper_bound_4  -2424.39646656199
    C65(4)    Q0_upper_bound_0  1
    C65(4)    Adjust_Q_hat_0  1
    C65(4)    Constr_Left_0_diff_aux_0  -1
    C65(4)    Constr_Lost_0_diff_aux_0  1
    C66(4)    Q0_upper_bound_1  1
    C66(4)    Adjust_Q_hat_1  1
    C66(4)    Constr_Left_0_diff_aux_1  -1
    C66(4)    Constr_Lost_0_diff_aux_1  1
    C67(4)    Q0_upper_bound_2  1
    C67(4)    Adjust_Q_hat_2  1
    C67(4)    Constr_Left_0_diff_aux_2  -1
    C67(4)    Constr_Lost_0_diff_aux_2  1
    C68(4)    Q0_upper_bound_3  1
    C68(4)    Adjust_Q_hat_3  1
    C68(4)    Constr_Left_0_diff_aux_3  -1
    C68(4)    Constr_Lost_0_diff_aux_3  1
    C69(4)    Q0_upper_bound_4  1
    C69(4)    Adjust_Q_hat_4  1
    C69(4)    Constr_Left_0_diff_aux_4  -1
    C69(4)    Constr_Lost_0_diff_aux_4  1
    MARKER    'MARKER'                 'INTORG'
    B70(4)    Ensure_only_one_R_true_0  1
    B70(4)    Define_Q_hat_0  -2.1683371063249533e+03
    B70(4)    Constr_Total_Demand_Up_to_K_Minus_1_0  -292.347948675354
    B70(4)    Constr_Total_Demand_from_K_to_T_0  -1.8228127320553758e+03
    B71(4)    Ensure_only_one_R_true_0  1
    B71(4)    Define_Q_hat_0  -2.0238858566003178e+03
    B71(4)    Constr_Total_Demand_Up_to_K_Minus_1_0  -5.0232820494682238e+02
    B71(4)    Constr_Total_Demand_from_K_to_T_0  -1.6128324757839075e+03
    B72(4)    Ensure_only_one_R_true_0  1
    B72(4)    Define_Q_hat_0  -2.1215423051972939e+03
    B72(4)    Constr_Total_Demand_Up_to_K_Minus_1_0  -7.7176733660518607e+02
    B72(4)    Constr_Total_Demand_from_K_to_T_0  -1.3433933441255438e+03
    B73(4)    Ensure_only_one_R_true_0  1
    B73(4)    Define_Q_hat_0  -2.1152336641318752e+03
    B73(4)    Constr_Total_Demand_Up_to_K_Minus_1_0  -9.8174759197636922e+02
    B73(4)    Constr_Total_Demand_from_K_to_T_0  -1.1334130887543608e+03
    B74(4)    Ensure_only_one_R_true_0  1
    B74(4)    Define_Q_hat_0  -2115.16068342389
    B74(4)    Constr_Total_Demand_Up_to_K_Minus_1_0  -1.0535632794988469e+03
    B74(4)    Constr_Total_Demand_from_K_to_T_0  -1.0615974012318832e+03
    B75(4)    Ensure_only_one_R_true_0  1
    B75(4)    Define_Q_hat_0  -2.1151606833770488e+03
    B75(4)    Constr_Total_Demand_Up_to_K_Minus_1_0  -1.2635435348307278e+03
    B75(4)    Constr_Total_Demand_from_K_to_T_0  -8.5161714590000224e+02
    B76(4)    Ensure_only_one_R_true_0  1
    B76(4)    Define_Q_hat_0  -2.1151606843022114e+03
    B76(4)    Constr_Total_Demand_Up_to_K_Minus_1_0  -1.4919856237765987e+03
    B76(4)    Constr_Total_Demand_from_K_to_T_0  -6.2317505695413149e+02
    B77(4)    Ensure_only_one_R_true_0  1
    B77(4)    Define_Q_hat_0  -2.1151606815969412e+03
    B77(4)    Constr_Total_Demand_Up_to_K_Minus_1_0  -1.6952001700669680e+03
    B77(4)    Constr_Total_Demand_from_K_to_T_0  -4.1996051066376191e+02
    B78(4)    Ensure_only_one_R_true_1  1
    B78(4)    Define_Q_hat_1  -1.9696993642427462e+03
    B78(4)    Constr_Total_Demand_Up_to_K_Minus_1_1  -1.4298798720710732e+02
    B78(4)    Constr_Total_Demand_from_K_to_T_1  -8.5422959967791780e+02
    B79(4)    Ensure_only_one_R_true_1  1
    B79(4)    Define_Q_hat_1  -1.0052148111686411e+03
    B79(4)    Constr_Total_Demand_Up_to_K_Minus_1_1  -2.2885019944739381e+02
    B79(4)    Constr_Total_Demand_from_K_to_T_1  -7.6836738743763135e+02
    B80(4)    Ensure_only_one_R_true_1  1
    B80(4)    Define_Q_hat_1  -1.0290329565108509e+03
    B80(4)    Constr_Total_Demand_Up_to_K_Minus_1_1  -3.7570652077631314e+02
    B80(4)    Constr_Total_Demand_from_K_to_T_1  -621.511066108712
    B81(4)    Ensure_only_one_R_true_1  1
    B81(4)    Define_Q_hat_1  -9.9729060015037157e+02
    B81(4)    Constr_Total_Demand_Up_to_K_Minus_1_1  -4.6154484323919655e+02
    B81(4)    Constr_Total_Demand_from_K_to_T_1  -5.3567274364582863e+02
    B82(4)    Ensure_only_one_R_true_1  1
    B82(4)    Define_Q_hat_1  -9.9721758957818520e+02
    B82(4)    Constr_Total_Demand_Up_to_K_Minus_1_1  -4.6154484323919655e+02
    B82(4)    Constr_Total_Demand_from_K_to_T_1  -5.3567274364582863e+02
    B83(4)    Ensure_only_one_R_true_1  1
    B83(4)    Define_Q_hat_1  -9.9721758953134440e+02
    B83(4)    Constr_Total_Demand_Up_to_K_Minus_1_1  -5.4738316509146011e+02
    B83(4)    Constr_Total_Demand_from_K_to_T_1  -4.4983442179356507e+02
    B84(4)    Ensure_only_one_R_true_1  1
    B84(4)    Define_Q_hat_1  -9.9721759045650606e+02
    B84(4)    Constr_Total_Demand_Up_to_K_Minus_1_1  -649.44369796626
    B84(4)    Constr_Total_Demand_from_K_to_T_1  -3.4777388891876512e+02
    B85(4)    Ensure_only_one_R_true_1  1
    B85(4)    Define_Q_hat_1  -9.9721758775123658e+02
    B85(4)    Constr_Total_Demand_Up_to_K_Minus_1_1  -8.2554094318050193e+02
    B85(4)    Constr_Total_Demand_from_K_to_T_1  -1.7167664370452320e+02
    B86(4)    Ensure_only_one_R_true_2  1
    B86(4)    Define_Q_hat_2  -1.9946607886006263e+03
    B86(4)    Constr_Total_Demand_Up_to_K_Minus_1_2  -1.6175701539482486e+02
    B86(4)    Constr_Total_Demand_from_K_to_T_2  -2.4349032877247819e+03
    B87(4)    Ensure_only_one_R_true_2  1
    B87(4)    Define_Q_hat_2  -2.6627301379353594e+03
    B87(4)    Constr_Total_Demand_Up_to_K_Minus_1_2  -4.4792424495790567e+02
    B87(4)    Constr_Total_Demand_from_K_to_T_2  -2.1487360581617013e+03
    B88(4)    Ensure_only_one_R_true_2  1
    B88(4)    Define_Q_hat_2  -2.6177931372960038e+03
    B88(4)    Constr_Total_Demand_Up_to_K_Minus_1_2  -6.1735963237288115e+02
    B88(4)    Constr_Total_Demand_from_K_to_T_2  -1.9793006707467257e+03
    B89(4)    Ensure_only_one_R_true_2  1
    B89(4)    Define_Q_hat_2  -2.5967332615302785e+03
    B89(4)    Constr_Total_Demand_Up_to_K_Minus_1_2  -9.0352686130635743e+02
    B89(4)    Constr_Total_Demand_from_K_to_T_2  -1.6931334418132494e+03
    B90(4)    Ensure_only_one_R_true_2  1
    B90(4)    Define_Q_hat_2  -2.5966603058127666e+03
    B90(4)    Constr_Total_Demand_Up_to_K_Minus_1_2  -1.1428832291274707e+03
    B90(4)    Constr_Total_Demand_from_K_to_T_2  -1.4537770739921361e+03
    B91(4)    Ensure_only_one_R_true_2  1
    B91(4)    Define_Q_hat_2  -2.5966603057659258e+03
    B91(4)    Constr_Total_Demand_Up_to_K_Minus_1_2  -1.4290504583898667e+03
    B91(4)    Constr_Total_Demand_from_K_to_T_2  -1.1676098447297402e+03
    B92(4)    Ensure_only_one_R_true_2  1
    B92(4)    Define_Q_hat_2  -2.5966603066910866e+03
    B92(4)    Constr_Total_Demand_Up_to_K_Minus_1_2  -1.7280605072120347e+03
    B92(4)    Constr_Total_Demand_from_K_to_T_2  -8.6859979590757212e+02
    B93(4)    Ensure_only_one_R_true_2  1
    B93(4)    Define_Q_hat_2  -2.5966603039858182e+03
    B93(4)    Constr_Total_Demand_Up_to_K_Minus_1_2  -2.0243258445948150e+03
    B93(4)    Constr_Total_Demand_from_K_to_T_2  -5.7233445852479190e+02
    B94(4)    Ensure_only_one_R_true_3  1
    B94(4)    Define_Q_hat_3  -2.1426490313126078e+03
    B94(4)    Constr_Total_Demand_Up_to_K_Minus_1_3  -2.7303253633820879e+02
    B94(4)    Constr_Total_Demand_from_K_to_T_3  -1.3200160212289122e+03
    B95(4)    Ensure_only_one_R_true_3  1
    B95(4)    Define_Q_hat_3  -1.7806328533818892e+03
    B95(4)    Constr_Total_Demand_Up_to_K_Minus_1_3  -4.5349452479937929e+02
    B95(4)    Constr_Total_Demand_from_K_to_T_3  -1.1395540327677415e+03
    B96(4)    Ensure_only_one_R_true_3  1
    B96(4)    Define_Q_hat_3  -1.6615880332417844e+03
    B96(4)    Constr_Total_Demand_Up_to_K_Minus_1_3  -6.2202310852042820e+02
    B96(4)    Constr_Total_Demand_from_K_to_T_3  -9.7102544904669264e+02
    B97(4)    Ensure_only_one_R_true_3  1
    B97(4)    Define_Q_hat_3  -1.5931215393801117e+03
    B97(4)    Constr_Total_Demand_Up_to_K_Minus_1_3  -8.0248518847170317e+02
    B97(4)    Constr_Total_Demand_from_K_to_T_3  -7.9056336909541767e+02
    B98(4)    Ensure_only_one_R_true_3  1
    B98(4)    Define_Q_hat_3  -1.5930485602602810e+03
    B98(4)    Constr_Total_Demand_Up_to_K_Minus_1_3  -8.0248518847170317e+02
    B98(4)    Constr_Total_Demand_from_K_to_T_3  -7.9056336909541767e+02
    B99(4)    Ensure_only_one_R_true_3  1
    B99(4)    Define_Q_hat_3  -1593.04856021344
    B99(4)    Constr_Total_Demand_Up_to_K_Minus_1_3  -9.8294726890922107e+02
    B99(4)    Constr_Total_Demand_from_K_to_T_3  -6.1010128865789977e+02
    B100(4)   Ensure_only_one_R_true_3  1
    B100(4)   Define_Q_hat_3  -1.5930485611386007e+03
    B100(4)   Constr_Total_Demand_Up_to_K_Minus_1_3  -1.1197713365743120e+03
    B100(4)   Constr_Total_Demand_from_K_to_T_3  -4.7327722099280879e+02
    B101(4)   Ensure_only_one_R_true_3  1
    B101(4)   Define_Q_hat_3  -1.5930485584333321e+03
    B101(4)   Constr_Total_Demand_Up_to_K_Minus_1_3  -1.2321243966920852e+03
    B101(4)   Constr_Total_Demand_from_K_to_T_3  -3.6092416087503585e+02
    B102(4)   Ensure_only_one_R_true_4  1
    B102(4)   Define_Q_hat_4  -2.0878880925792514e+03
    B102(4)   Constr_Total_Demand_Up_to_K_Minus_1_4  -2.3185661672976821e+02
    B102(4)   Constr_Total_Demand_from_K_to_T_4  -1.2258120146896588e+03
    B103(4)   Ensure_only_one_R_true_4  1
    B103(4)   Define_Q_hat_4  -1.5612447696433121e+03
    B103(4)   Constr_Total_Demand_Up_to_K_Minus_1_4  -3.8552132545163636e+02
    B103(4)   Constr_Total_Demand_from_K_to_T_4  -1.0721473059677905e+03
    B104(4)   Ensure_only_one_R_true_4  1
    B104(4)   Define_Q_hat_4  -1.4258345659901790e+03
    B104(4)   Constr_Total_Demand_Up_to_K_Minus_1_4  -5.2337414720409060e+02
    B104(4)   Constr_Total_Demand_from_K_to_T_4  -9.3429448421533630e+02
    B105(4)   Ensure_only_one_R_true_4  1
    B105(4)   Define_Q_hat_4  -1.4577416430448152e+03
    B105(4)   Constr_Total_Demand_Up_to_K_Minus_1_4  -6.7703963220471019e+02
    B105(4)   Constr_Total_Demand_from_K_to_T_4  -7.8062899921471683e+02
    B106(4)   Ensure_only_one_R_true_4  1
    B106(4)   Define_Q_hat_4  -1.4576686341125874e+03
    B106(4)   Constr_Total_Demand_Up_to_K_Minus_1_4  -8.3281230203504447e+02
    B106(4)   Constr_Total_Demand_from_K_to_T_4  -6.2485632938438243e+02
    B107(4)   Ensure_only_one_R_true_4  1
    B107(4)   Define_Q_hat_4  -1.4576686340657461e+03
    B107(4)   Constr_Total_Demand_Up_to_K_Minus_1_4  -9.8647778703267534e+02
    B107(4)   Constr_Total_Demand_from_K_to_T_4  -4.7119084438675156e+02
    B108(4)   Ensure_only_one_R_true_4  1
    B108(4)   Define_Q_hat_4  -1.4576686349909075e+03
    B108(4)   Constr_Total_Demand_Up_to_K_Minus_1_4  -1.1400575593233978e+03
    B108(4)   Constr_Total_Demand_from_K_to_T_4  -3.1761107209602926e+02
    B109(4)   Ensure_only_one_R_true_4  1
    B109(4)   Define_Q_hat_4  -1.4576686322856383e+03
    B109(4)   Constr_Total_Demand_Up_to_K_Minus_1_4  -1.1503376614241649e+03
    B109(4)   Constr_Total_Demand_from_K_to_T_4  -3.0733096999526197e+02
    MARKER    'MARKER'                 'INTEND'
    C110(1)   Constr_Q1_plus_left_0  -1
    C111(1)   Constr_Q1_plus_left_1  -1
    C112(1)   Constr_Q1_plus_left_2  -1
    C113(1)   Constr_Q1_plus_left_3  -1
    C114(1)   Constr_Q1_plus_left_4  -1
    C115(2)   Define_Q_hat_0  1
    C115(2)   Adjust_Q_hat_0  -1
    C116(2)   Define_Q_hat_1  1
    C116(2)   Adjust_Q_hat_1  -1
    C117(2)   Define_Q_hat_2  1
    C117(2)   Adjust_Q_hat_2  -1
    C118(2)   Define_Q_hat_3  1
    C118(2)   Adjust_Q_hat_3  -1
    C119(2)   Define_Q_hat_4  1
    C119(2)   Adjust_Q_hat_4  -1
    C120(1)   Adjust_Q_hat_0  1
    C121(1)   Adjust_Q_hat_1  1
    C122(1)   Adjust_Q_hat_2  1
    C123(1)   Adjust_Q_hat_3  1
    C124(1)   Adjust_Q_hat_4  1
    C125(1)   Constr_Left_0_diff_aux_0  1
    C126(1)   Constr_Lost_0_diff_aux_0  1
    C127(1)   Constr_Left_1_diff_aux_0  1
    C128(1)   Constr_Lost_1_diff_aux_0  1
    C129(1)   Constr_Left_0_diff_aux_1  1
    C130(1)   Constr_Lost_0_diff_aux_1  1
    C131(1)   Constr_Left_1_diff_aux_1  1
    C132(1)   Constr_Lost_1_diff_aux_1  1
    C133(1)   Constr_Left_0_diff_aux_2  1
    C134(1)   Constr_Lost_0_diff_aux_2  1
    C135(1)   Constr_Left_1_diff_aux_2  1
    C136(1)   Constr_Lost_1_diff_aux_2  1
    C137(1)   Constr_Left_0_diff_aux_3  1
    C138(1)   Constr_Lost_0_diff_aux_3  1
    C139(1)   Constr_Left_1_diff_aux_3  1
    C140(1)   Constr_Lost_1_diff_aux_3  1
    C141(1)   Constr_Left_0_diff_aux_4  1
    C142(1)   Constr_Lost_0_diff_aux_4  1
    C143(1)   Constr_Left_1_diff_aux_4  1
    C144(1)   Constr_Lost_1_diff_aux_4  1
RHS
    RHS1      Fraction_upper_bound_0  1
    RHS1      Ensure_only_one_R_true_0  1
    RHS1      Fraction_upper_bound_1  1
    RHS1      Ensure_only_one_R_true_1  1
    RHS1      Fraction_upper_bound_2  1
    RHS1      Ensure_only_one_R_true_2  1
    RHS1      Fraction_upper_bound_3  1
    RHS1      Ensure_only_one_R_true_3  1
    RHS1      Fraction_upper_bound_4  1
    RHS1      Ensure_only_one_R_true_4  1
BOUNDS
 FR BND1      C40(1)  
 FR BND1      C41(1)  
 FR BND1      C42(1)  
 FR BND1      C43(1)  
 FR BND1      C44(1)  
 UP BND1      C60(3)    1
 UP BND1      C61(3)    1
 UP BND1      C62(3)    1
 UP BND1      C63(3)    1
 UP BND1      C64(3)    1
 UP BND1      C65(4)    2425.39646656199
 UP BND1      C66(4)    2425.39646656199
 UP BND1      C67(4)    2425.39646656199
 UP BND1      C68(4)    2425.39646656199
 UP BND1      C69(4)    2425.39646656199
 BV BND1      B70(4)  
 BV BND1      B71(4)  
 BV BND1      B72(4)  
 BV BND1      B73(4)  
 BV BND1      B74(4)  
 BV BND1      B75(4)  
 BV BND1      B76(4)  
 BV BND1      B77(4)  
 BV BND1      B78(4)  
 BV BND1      B79(4)  
 BV BND1      B80(4)  
 BV BND1      B81(4)  
 BV BND1      B82(4)  
 BV BND1      B83(4)  
 BV BND1      B84(4)  
 BV BND1      B85(4)  
 BV BND1      B86(4)  
 BV BND1      B87(4)  
 BV BND1      B88(4)  
 BV BND1      B89(4)  
 BV BND1      B90(4)  
 BV BND1      B91(4)  
 BV BND1      B92(4)  
 BV BND1      B93(4)  
 BV BND1      B94(4)  
 BV BND1      B95(4)  
 BV BND1      B96(4)  
 BV BND1      B97(4)  
 BV BND1      B98(4)  
 BV BND1      B99(4)  
 BV BND1      B100(4) 
 BV BND1      B101(4) 
 BV BND1      B102(4) 
 BV BND1      B103(4) 
 BV BND1      B104(4) 
 BV BND1      B105(4) 
 BV BND1      B106(4) 
 BV BND1      B107(4) 
 BV BND1      B108(4) 
 BV BND1      B109(4) 
 FR BND1      C120(1) 
 FR BND1      C121(1) 
 FR BND1      C122(1) 
 FR BND1      C123(1) 
 FR BND1      C124(1) 
 FR BND1      C125(1) 
 FR BND1      C126(1) 
 FR BND1      C127(1) 
 FR BND1      C128(1) 
 FR BND1      C129(1) 
 FR BND1      C130(1) 
 FR BND1      C131(1) 
 FR BND1      C132(1) 
 FR BND1      C133(1) 
 FR BND1      C134(1) 
 FR BND1      C135(1) 
 FR BND1      C136(1) 
 FR BND1      C137(1) 
 FR BND1      C138(1) 
 FR BND1      C139(1) 
 FR BND1      C140(1) 
 FR BND1      C141(1) 
 FR BND1      C142(1) 
 FR BND1      C143(1) 
 FR BND1      C144(1) 
GENCONS
 MAX Max_Constraint_0
    C110(1)
    C120(1)
    0
 MIN Constr_Sold_0_min_0
    C0(2)
    C45(2)
    C65(4)
 MAX Constr_Left_0_max_0
    C5(1)
    C125(1)
    0
 MAX Constr_Lost_0_max_0
    C10(1)
    C126(1)
    0
 MIN Constr_Sold_1_min_0
    C15(2)
    C50(2)
    C55(3)
 MAX Constr_Left_1_max_0
    C20(1)
    C127(1)
    0
 MAX Constr_Lost_1_max_0
    C25(1)
    C128(1)
    0
 MAX Max_Constraint_1
    C111(1)
    C121(1)
    0
 MIN Constr_Sold_0_min_1
    C1(2)
    C46(2)
    C66(4)
 MAX Constr_Left_0_max_1
    C6(1)
    C129(1)
    0
 MAX Constr_Lost_0_max_1
    C11(1)
    C130(1)
    0
 MIN Constr_Sold_1_min_1
    C16(2)
    C51(2)
    C56(3)
 MAX Constr_Left_1_max_1
    C21(1)
    C131(1)
    0
 MAX Constr_Lost_1_max_1
    C26(1)
    C132(1)
    0
 MAX Max_Constraint_2
    C112(1)
    C122(1)
    0
 MIN Constr_Sold_0_min_2
    C2(2)
    C47(2)
    C67(4)
 MAX Constr_Left_0_max_2
    C7(1)
    C133(1)
    0
 MAX Constr_Lost_0_max_2
    C12(1)
    C134(1)
    0
 MIN Constr_Sold_1_min_2
    C17(2)
    C52(2)
    C57(3)
 MAX Constr_Left_1_max_2
    C22(1)
    C135(1)
    0
 MAX Constr_Lost_1_max_2
    C27(1)
    C136(1)
    0
 MAX Max_Constraint_3
    C113(1)
    C123(1)
    0
 MIN Constr_Sold_0_min_3
    C3(2)
    C48(2)
    C68(4)
 MAX Constr_Left_0_max_3
    C8(1)
    C137(1)
    0
 MAX Constr_Lost_0_max_3
    C13(1)
    C138(1)
    0
 MIN Constr_Sold_1_min_3
    C18(2)
    C53(2)
    C58(3)
 MAX Constr_Left_1_max_3
    C23(1)
    C139(1)
    0
 MAX Constr_Lost_1_max_3
    C28(1)
    C140(1)
    0
 MAX Max_Constraint_4
    C114(1)
    C124(1)
    0
 MIN Constr_Sold_0_min_4
    C4(2)
    C49(2)
    C69(4)
 MAX Constr_Left_0_max_4
    C9(1)
    C141(1)
    0
 MAX Constr_Lost_0_max_4
    C14(1)
    C142(1)
    0
 MIN Constr_Sold_1_min_4
    C19(2)
    C54(2)
    C59(3)
 MAX Constr_Left_1_max_4
    C24(1)
    C143(1)
    0
 MAX Constr_Lost_1_max_4
    C29(1)
    C144(1)
    0
ENDATA
